num_tasks = 4;
max_deadline = 8;
accumulated_ki = {0,3,5,7,9};
ri = [0, 2, 3, 5];
est = [0, 2, 3, 2, 4, 3, 4, 5, 6];
lst = [2, 4, 5, 2, 4, 7, 8, 5, 6];
pij = [2, 1, 1, 2, 1, 1, 1, 1, 2];
deps = [{}, {}, {1}, {}];

